<?xml version = "1.0" standalone="yes"?>
<!-- This file has been generated by DOcplex version 2.23.222  -->
<CPLEXSolution version="1.0">
 <header
   problemName="CVRP"
   objectiveValue="12110.7"
  />
 <variables>
  <variable name="x_0_1" index="0" value="1.00000"/>
  <variable name="x_0_4" index="3" value="1.00000"/>
  <variable name="x_0_6" index="5" value="1.00000"/>
  <variable name="x_0_8" index="7" value="1.00000"/>
  <variable name="x_0_11" index="10" value="1.00000"/>
  <variable name="x_0_12" index="11" value="1.00000"/>
  <variable name="x_0_14" index="13" value="1.00000"/>
  <variable name="x_0_16" index="15" value="1.00000"/>
  <variable name="x_0_20" index="19" value="1.00000"/>
  <variable name="x_1_9" index="29" value="1.00000"/>
  <variable name="x_2_18" index="59" value="1.00000"/>
  <variable name="x_3_15" index="77" value="1.00000"/>
  <variable name="x_4_10" index="93" value="1.00000"/>
  <variable name="x_5_19" index="123" value="1.00000"/>
  <variable name="x_6_7" index="132" value="1.00000"/>
  <variable name="x_7_0" index="147" value="1.00000"/>
  <variable name="x_8_21" index="188" value="1.00000"/>
  <variable name="x_9_13" index="201" value="1.00000"/>
  <variable name="x_10_0" index="210" value="1.00000"/>
  <variable name="x_11_0" index="231" value="1.00000"/>
  <variable name="x_12_2" index="254" value="1.00000"/>
  <variable name="x_13_0" index="273" value="1.00000"/>
  <variable name="x_14_5" index="299" value="1.00000"/>
  <variable name="x_15_0" index="315" value="1.00000"/>
  <variable name="x_16_0" index="336" value="1.00000"/>
  <variable name="x_17_0" index="357" value="1.00000"/>
  <variable name="x_18_0" index="378" value="1.00000"/>
  <variable name="x_19_17" index="416" value="1.00000"/>
  <variable name="x_20_3" index="423" value="1.00000"/>
  <variable name="x_21_0" index="441" value="1.00000"/>
  <variable name="u_1" index="462" value="3.00000"/>
  <variable name="u_2" index="463" value="54.00000"/>
  <variable name="u_3" index="464" value="40.00000"/>
  <variable name="u_4" index="465" value="24.00000"/>
  <variable name="u_5" index="466" value="37.00000"/>
  <variable name="u_6" index="467" value="28.00000"/>
  <variable name="u_7" index="468" value="75.00000"/>
  <variable name="u_8" index="469" value="10.00000"/>
  <variable name="u_9" index="470" value="17.00000"/>
  <variable name="u_10" index="471" value="75.00000"/>
  <variable name="u_11" index="472" value="65.00000"/>
  <variable name="u_12" index="473" value="22.00000"/>
  <variable name="u_13" index="474" value="75.00000"/>
  <variable name="u_14" index="475" value="36.00000"/>
  <variable name="u_15" index="476" value="75.00000"/>
  <variable name="u_16" index="477" value="75.00000"/>
  <variable name="u_17" index="478" value="75.00000"/>
  <variable name="u_18" index="479" value="75.00000"/>
  <variable name="u_19" index="480" value="53.00000"/>
  <variable name="u_20" index="481" value="3.00000"/>
  <variable name="u_21" index="482" value="75.00000"/>
 </variables>
</CPLEXSolution>
